
===== New CPLEX run =====
Instance: /home/yorig/tuner/mpils-tests/instances/miplib/medium-1/momentum1.mps
Config: /scratch/yorig/mpils-results-grid-ticks-10000/medium-1/16proc/seed-5/6_momentum1_seed-5_20260425_215516/expansion/config_param_CPXPARAM_Preprocessing_Fill_20_iter_3.prm
========================

Selected objective sense:  MINIMIZE
Selected objective  name:  MINIMIZE
Selected RHS        name:  rhs
Selected bound      name:  bnd
Version identifier: 22.1.2.0 | 2024-11-26 | 0edbb82fd
CPXPARAM_Threads                                 8
CPXPARAM_Parallel                                1
CPXPARAM_MIP_Cuts_Cliques                        -1
CPXPARAM_MIP_Cuts_FlowCovers                     2
CPXPARAM_MIP_Cuts_Implied                        1
CPXPARAM_MIP_Limits_GomoryCand                   25
CPXPARAM_MIP_Cuts_Gomory                         1
CPXPARAM_MIP_Cuts_PathCut                        1
CPXPARAM_MIP_Cuts_Disjunctive                    -1
CPXPARAM_Emphasis_MIP                            4
CPXPARAM_Preprocessing_Fill                      20
CPXPARAM_MIP_Strategy_HeuristicFreq              100
CPXPARAM_DetTimeLimit                            10000
Tried aggregator 3 times.
MIP Presolve eliminated 30811 rows and 1362 columns.
MIP Presolve modified 22662 coefficients.
Aggregator did 245 substitutions.
Reduced MIP has 11624 rows, 3567 columns, and 46861 nonzeros.
Reduced MIP has 1625 binaries, 0 generals, 0 SOSs, and 0 indicators.
Presolve time = 0.10 sec. (138.35 ticks)
Found incumbent of value 533875.101734 after 0.11 sec. (152.54 ticks)
Probing fixed 391 vars, tightened 1102 bounds.
Probing changed sense of 113 constraints.
Probing time = 0.08 sec. (89.88 ticks)
Cover probing fixed 0 vars, tightened 232 bounds.
Tried aggregator 2 times.
MIP Presolve eliminated 3292 rows and 844 columns.
MIP Presolve added 4 rows and 0 columns.
MIP Presolve modified 7192 coefficients.
Aggregator did 20 substitutions.
Reduced MIP has 8316 rows, 2703 columns, and 31677 nonzeros.
Reduced MIP has 1169 binaries, 0 generals, 0 SOSs, and 0 indicators.
Presolve time = 0.04 sec. (45.81 ticks)
Probing fixed 3 vars, tightened 263 bounds.
Probing time = 0.04 sec. (44.74 ticks)
Cover probing fixed 0 vars, tightened 168 bounds.
Tried aggregator 1 time.
Detecting symmetries...
MIP Presolve eliminated 39 rows and 6 columns.
MIP Presolve modified 5077 coefficients.
Reduced MIP has 8277 rows, 2697 columns, and 31568 nonzeros.
Reduced MIP has 1166 binaries, 0 generals, 0 SOSs, and 0 indicators.
Presolve time = 0.02 sec. (22.19 ticks)
Probing fixed 0 vars, tightened 85 bounds.
Probing time = 0.04 sec. (40.81 ticks)
Cover probing fixed 0 vars, tightened 67 bounds.
Clique table members: 18796.
MIP emphasis: hidden feasible solutions.
MIP search method: dynamic search.
Parallel mode: deterministic, using up to 8 threads.
Root relaxation solution time = 0.12 sec. (155.52 ticks)

        Nodes                                         Cuts/
   Node  Left     Objective  IInf  Best Integer    Best Bound    ItCnt     Gap

*     0+    0                       533875.1017    44880.8651            91.59%
*     0+    0                       533835.2814    44880.8651            91.59%
*     0+    0                       327414.1802    44880.8651            86.29%
*     0+    0                       327396.3819    44880.8651            86.29%
      0     0    79213.0355   216   327396.3819    79213.0355     1549   75.81%
      0     0    93069.4387   268   327396.3819     Cuts: 147     2122   71.57%
*     0+    0                       320964.6084    93069.4387            71.00%
      0     0    96256.2147   301   320964.6084      Cuts: 48     3397   70.01%
      0     0    96257.6941   296   320964.6084      Cuts: 38     3571   70.01%
*     0+    0                       308151.2093    96257.6941            68.76%
      0     0  -1.00000e+75     0   308151.2093    96257.6941     3571   68.76%
      0     0    96258.1127   296   308151.2093      Cuts: 19     3662   68.76%
*     0+    0                       308151.2090    96258.1127            68.76%
      0     0    96258.3106   288   308151.2090      Cuts: 10     3721   68.76%
Detecting symmetries...
      0     0    96258.3899   299   308151.2090      Cuts: 38     3748   68.76%
Detecting symmetries...
      0     2    96258.3899   299   308151.2090    96258.4283     3748   68.76%
Elapsed time = 3.59 sec. (5951.14 ticks, tree = 0.02 MB, solutions = 7)
     19     8    96267.0005   216   308151.2090    96258.4438     4476   68.76%
     68    53   102728.2136   175   308151.2090    96265.6079    10659   68.76%
     91    90   109122.0866   150   308151.2090    96265.6079    16423   68.76%
    129   107    96482.7500   216   308151.2090    96265.6079    19876   68.76%
    181   166   111247.0602   154   308151.2090    96265.6079    27266   68.76%
    236   216   109199.2737    43   308151.2090    96265.6079    29249   68.76%
    270   242   112442.3952    33   308151.2090    96265.6079    31656   68.76%
    286   250   116803.8001   170   308151.2090    96265.6079    34656   68.76%
    333   298   115567.1646   109   308151.2090    96265.6079    41250   68.76%
    440   391   115593.2177   108   308151.2090    96265.6079    56273   68.76%
Elapsed time = 5.72 sec. (9241.26 ticks, tree = 2.13 MB, solutions = 7)

Implied bound cuts applied:  1
Flow cuts applied:  111
Mixed integer rounding cuts applied:  1
Flow path cuts applied:  0
Zero-half cuts applied:  31
Gomory fractional cuts applied:  4

Root node processing (before b&c):
  Real time             =    3.55 sec. (5900.64 ticks)
Parallel b&c, 8 threads:
  Real time             =    2.74 sec. (4104.79 ticks)
  Sync time (average)   =    0.48 sec.
  Wait time (average)   =    0.00 sec.
                          ------------
Total (root+branch&cut) =    6.29 sec. (10005.44 ticks)
Gap: 68.76%
Upper bound: 308151
Lower bound: 96265.6
End of CPLEX run. Time: 6.29288 seconds

===== New CPLEX run =====
Instance: /home/yorig/tuner/mpils-tests/instances/miplib/medium-1/momentum1.mps
Config: /scratch/yorig/mpils-results-grid-ticks-10000/medium-1/16proc/seed-5/6_momentum1_seed-5_20260425_215516/expansion/config_param_CPXPARAM_Preprocessing_Fill_40_iter_3.prm
========================

Selected objective sense:  MINIMIZE
Selected objective  name:  MINIMIZE
Selected RHS        name:  rhs
Selected bound      name:  bnd
Version identifier: 22.1.2.0 | 2024-11-26 | 0edbb82fd
CPXPARAM_Threads                                 8
CPXPARAM_Parallel                                1
CPXPARAM_MIP_Cuts_Cliques                        -1
CPXPARAM_MIP_Cuts_FlowCovers                     2
CPXPARAM_MIP_Cuts_Implied                        1
CPXPARAM_MIP_Limits_GomoryCand                   25
CPXPARAM_MIP_Cuts_Gomory                         1
CPXPARAM_MIP_Cuts_PathCut                        1
CPXPARAM_MIP_Cuts_Disjunctive                    -1
CPXPARAM_Emphasis_MIP                            4
CPXPARAM_Preprocessing_Fill                      40
CPXPARAM_MIP_Strategy_HeuristicFreq              100
CPXPARAM_DetTimeLimit                            10000
Tried aggregator 3 times.
MIP Presolve eliminated 30814 rows and 1362 columns.
MIP Presolve added 8 rows and 0 columns.
MIP Presolve modified 23171 coefficients.
Aggregator did 281 substitutions.
Reduced MIP has 11593 rows, 3531 columns, and 47707 nonzeros.
Reduced MIP has 1625 binaries, 0 generals, 0 SOSs, and 0 indicators.
Presolve time = 0.11 sec. (142.54 ticks)
Found incumbent of value 533875.101734 after 0.12 sec. (156.68 ticks)
Probing fixed 392 vars, tightened 1010 bounds.
Probing changed sense of 113 constraints.
Probing time = 0.08 sec. (91.10 ticks)
Cover probing fixed 0 vars, tightened 207 bounds.
Tried aggregator 2 times.
MIP Presolve eliminated 3304 rows and 846 columns.
MIP Presolve added 10 rows and 0 columns.
MIP Presolve modified 7232 coefficients.
Aggregator did 31 substitutions.
Reduced MIP has 8268 rows, 2654 columns, and 32708 nonzeros.
Reduced MIP has 1168 binaries, 0 generals, 0 SOSs, and 0 indicators.
Presolve time = 0.04 sec. (47.25 ticks)
Probing fixed 2 vars, tightened 223 bounds.
Probing time = 0.04 sec. (44.57 ticks)
Cover probing fixed 0 vars, tightened 130 bounds.
Tried aggregator 2 times.
Detecting symmetries...
MIP Presolve eliminated 34 rows and 4 columns.
MIP Presolve modified 5126 coefficients.
Aggregator did 1 substitutions.
Reduced MIP has 8233 rows, 2649 columns, and 32641 nonzeros.
Reduced MIP has 1166 binaries, 0 generals, 0 SOSs, and 0 indicators.
Presolve time = 0.02 sec. (25.67 ticks)
Probing fixed 0 vars, tightened 78 bounds.
Probing time = 0.05 sec. (40.83 ticks)
Cover probing fixed 0 vars, tightened 76 bounds.
Clique table members: 19169.
MIP emphasis: hidden feasible solutions.
MIP search method: dynamic search.
Parallel mode: deterministic, using up to 8 threads.
Root relaxation solution time = 0.12 sec. (145.43 ticks)

        Nodes                                         Cuts/
   Node  Left     Objective  IInf  Best Integer    Best Bound    ItCnt     Gap

*     0+    0                       533875.1017    44880.8652            91.59%
*     0+    0                       533835.2814    44880.8652            91.59%
*     0+    0                       321001.6697    44880.8652            86.02%
*     0+    0                       320968.5520    44880.8652            86.02%
      0     0    79213.1437   240   320968.5520    79213.1437     1541   75.32%
      0     0    96254.7375   293   320968.5520     Cuts: 138     2075   70.01%
      0     0    96260.8360   300   320968.5520      Cuts: 75     2346   70.01%
      0     0    96261.3590   287   320968.5520      Cuts: 30     2429   70.01%
*     0+    0                       314556.8987    96261.3590            69.40%
      0     0  -1.00000e+75     0   314556.8987    96261.3590     2429   69.40%
      0     0    96272.2664   279   314556.8987      Cuts: 26     2571   69.39%
      0     0    96275.0464   285   314556.8987      Cuts: 33     2663   69.39%
Detecting symmetries...
*     0+    0                       308129.2302    96275.0464            68.75%
      0     0    96277.1137   289   308129.2302      Cuts: 39     2714   68.75%
Detecting symmetries...
      0     2    96277.1137   289   308129.2302    96277.1137     2714   68.75%
Elapsed time = 3.54 sec. (5435.50 ticks, tree = 0.02 MB, solutions = 6)
     24    22    96312.8560   265   308129.2302    96297.3231     5394   68.75%
     59    59    96344.2801   237   308129.2302    96297.3231     9375   68.75%
     79    73    96514.8896   166   308129.2302    96297.3231    15232   68.75%
     87    82    98505.9233   218   308129.2302    96297.3231    17170   68.75%
    108    98    96320.7314   260   308129.2302    96297.3231    22989   68.75%
    145   118    96485.5109   214   308129.2302    96297.3231    28229   68.75%
    183   146   102769.9115   178   308129.2302    96297.3231    35412   68.75%
    237   191   109352.4203   147   308129.2302    96297.3231    41818   68.75%
    275   255   102951.5116   216   308129.2302    96297.3231    51822   68.75%
    479   378   115869.5222   123   308129.2302    96297.3231    73859   68.75%
Elapsed time = 5.65 sec. (8606.99 ticks, tree = 0.70 MB, solutions = 6)
    643   529   125270.9964   126   308129.2302    96297.3231    92490   68.75%

Implied bound cuts applied:  0
Flow cuts applied:  123
Flow path cuts applied:  0
Zero-half cuts applied:  42
Gomory fractional cuts applied:  4

Root node processing (before b&c):
  Real time             =    3.51 sec. (5403.98 ticks)
Parallel b&c, 8 threads:
  Real time             =    3.15 sec. (4630.74 ticks)
  Sync time (average)   =    0.41 sec.
  Wait time (average)   =    0.00 sec.
                          ------------
Total (root+branch&cut) =    6.66 sec. (10034.72 ticks)
Gap: 68.75%
Upper bound: 308129
Lower bound: 96297.3
End of CPLEX run. Time: 6.65814 seconds
